unsat
(:binary-propagations  98
 :conflicts            1
 :final-checks         1
 :max-generation       1
 :max-memory           25.58
 :memory               21.61
 :mk-bool-var          1326
 :mk-clause            328
 :mk-clause-binary     1375
 :num-allocs           27559844
 :num-checks           1
 :propagations         98
 :quant-instantiations 224
 :restarts             1
 :rlimit-count         342551
 :time                 0.05)
